# Objective value = 7.5287699511745577e+03
I_0_0 1549
I_0_1 2003
I_0_2 1.8279999999999759e+03
I_0_3 1.9169999627011948e+03
I_0_4 1.8510000372987529e+03
I_0_5 1.7810000000000002e+03
I_0_6 2420
I_1_0 78
I_1_1 39
I_1_2 78
I_1_3 39
I_1_4 0
I_1_5 78
I_1_6 39
I_2_0 190
I_2_1 95
I_2_2 190
I_2_3 9.5000000000000142e+01
I_2_4 190
I_2_5 9.4999999999999858e+01
I_2_6 0
I_3_0 26
I_3_1 13
I_3_2 26
I_3_3 13
I_3_4 2.5999999999999996e+01
I_3_5 1.2999999999999996e+01
I_3_6 0
I_4_0 55
I_4_1 0
I_4_2 55
I_4_3 0
I_4_4 55
I_4_5 55
I_4_6 0
I_5_0 94
I_5_1 47
I_5_2 0
I_5_3 94
I_5_4 94
I_5_5 47
I_5_6 0
I_6_0 39
I_6_1 0
I_6_2 39
I_6_3 39
I_6_4 0
I_6_5 39
I_6_6 0
I_7_0 89
I_7_1 89
I_7_2 0
I_7_3 8.8999999999999986e+01
I_7_4 0
I_7_5 89
I_7_6 0
I_8_0 89
I_8_1 0
I_8_2 89
I_8_3 3.7298758883311566e-05
I_8_4 8.8999962701251050e+01
I_8_5 89
I_8_6 0
I_9_0 154
I_9_1 77
I_9_2 154
I_9_3 77
I_9_4 154
I_9_5 7.6999999999998948e+01
I_9_6 0
I_10_0 96
I_10_1 96
I_10_2 0
I_10_3 96
I_10_4 0
I_10_5 96
I_10_6 0
q_1_0_0 0
q_1_0_1 78
q_1_0_2 0
q_1_0_3 0
q_1_0_4 117
q_1_0_5 0
q_1_1_0 0
q_1_1_1 0
q_1_1_2 0
q_1_1_3 0
q_1_1_4 0
q_1_1_5 0
q_1_2_0 0
q_1_2_1 0
q_1_2_2 0
q_1_2_3 0
q_1_2_4 0
q_1_2_5 0
q_1_3_0 0
q_1_3_1 0
q_1_3_2 0
q_1_3_3 0
q_1_3_4 0
q_1_3_5 0
q_1_4_0 0
q_1_4_1 0
q_1_4_2 0
q_1_4_3 0
q_1_4_4 0
q_1_4_5 0
q_2_0_0 0
q_2_0_1 0
q_2_0_2 1.4916291533999224e-13
q_2_0_3 1.8999999999999986e+02
q_2_0_4 0
q_2_0_5 0
q_2_1_0 0
q_2_1_1 190
q_2_1_2 0
q_2_1_3 0
q_2_1_4 0
q_2_1_5 0
q_2_2_0 0
q_2_2_1 0
q_2_2_2 0
q_2_2_3 0
q_2_2_4 0
q_2_2_5 0
q_2_3_0 0
q_2_3_1 0
q_2_3_2 0
q_2_3_3 0
q_2_3_4 0
q_2_3_5 0
q_2_4_0 0
q_2_4_1 0
q_2_4_2 0
q_2_4_3 0
q_2_4_4 0
q_2_4_5 0
q_3_0_0 0
q_3_0_1 0
q_3_0_2 0
q_3_0_3 0
q_3_0_4 0
q_3_0_5 1.7763568394002505e-15
q_3_1_0 0
q_3_1_1 0
q_3_1_2 0
q_3_1_3 26
q_3_1_4 0
q_3_1_5 0
q_3_2_0 0
q_3_2_1 26
q_3_2_2 0
q_3_2_3 0
q_3_2_4 0
q_3_2_5 0
q_3_3_0 0
q_3_3_1 0
q_3_3_2 0
q_3_3_3 0
q_3_3_4 0
q_3_3_5 0
q_3_4_0 0
q_3_4_1 0
q_3_4_2 0
q_3_4_3 0
q_3_4_4 0
q_3_4_5 0
q_4_0_0 0
q_4_0_1 110
q_4_0_2 0
q_4_0_3 0
q_4_0_4 5.4999999999999574e+01
q_4_0_5 0
q_4_1_0 0
q_4_1_1 0
q_4_1_2 0
q_4_1_3 110
q_4_1_4 0
q_4_1_5 0
q_4_2_0 0
q_4_2_1 0
q_4_2_2 0
q_4_2_3 0
q_4_2_4 0
q_4_2_5 0
q_4_3_0 0
q_4_3_1 0
q_4_3_2 0
q_4_3_3 0
q_4_3_4 0
q_4_3_5 0
q_4_4_0 0
q_4_4_1 0
q_4_4_2 0
q_4_4_3 0
q_4_4_4 0
q_4_4_5 0
q_5_0_0 0
q_5_0_1 0
q_5_0_2 0
q_5_0_3 0
q_5_0_4 0
q_5_0_5 0
q_5_1_0 0
q_5_1_1 0
q_5_1_2 1.4099996958744046e+02
q_5_1_3 4.6999999999999176e+01
q_5_1_4 0
q_5_1_5 0
q_5_2_0 0
q_5_2_1 0
q_5_2_2 0
q_5_2_3 0
q_5_2_4 0
q_5_2_5 0
q_5_3_0 0
q_5_3_1 0
q_5_3_2 3.0412568315631053e-05
q_5_3_3 0
q_5_3_4 0
q_5_3_5 0
q_5_4_0 0
q_5_4_1 0
q_5_4_2 0
q_5_4_3 0
q_5_4_4 0
q_5_4_5 0
q_6_0_0 0
q_6_0_1 0
q_6_0_2 0
q_6_0_3 0
q_6_0_4 0
q_6_0_5 0
q_6_1_0 0
q_6_1_1 0
q_6_1_2 3.8999998142807605e+01
q_6_1_3 0
q_6_1_4 1.1637211684956128e-04
q_6_1_5 0
q_6_2_0 0
q_6_2_1 0
q_6_2_2 0
q_6_2_3 0
q_6_2_4 0
q_6_2_5 0
q_6_3_0 0
q_6_3_1 0
q_6_3_2 1.8571919315131231e-06
q_6_3_3 0
q_6_3_4 7.7999883627887215e+01
q_6_3_5 0
q_6_4_0 0
q_6_4_1 78
q_6_4_2 0
q_6_4_3 0
q_6_4_4 0
q_6_4_5 0
q_7_0_0 89
q_7_0_1 0
q_7_0_2 178
q_7_0_3 0
q_7_0_4 0
q_7_0_5 0
q_7_1_0 0
q_7_1_1 0
q_7_1_2 0
q_7_1_3 0
q_7_1_4 0
q_7_1_5 0
q_7_2_0 0
q_7_2_1 0
q_7_2_2 0
q_7_2_3 0
q_7_2_4 178
q_7_2_5 0
q_7_3_0 0
q_7_3_1 0
q_7_3_2 0
q_7_3_3 0
q_7_3_4 0
q_7_3_5 0
q_7_4_0 0
q_7_4_1 0
q_7_4_2 0
q_7_4_3 0
q_7_4_4 0
q_7_4_5 0
q_8_0_0 0
q_8_0_1 0
q_8_0_2 0
q_8_0_3 0
q_8_0_4 0
q_8_0_5 0
q_8_1_0 0
q_8_1_1 0
q_8_1_2 3.7298758883311132e-05
q_8_1_3 0
q_8_1_4 1.7008231458702733e-04
q_8_1_5 0
q_8_2_0 0
q_8_2_1 0
q_8_2_2 0
q_8_2_3 1.7799992540251080e+02
q_8_2_4 0
q_8_2_5 0
q_8_3_0 0
q_8_3_1 178
q_8_3_2 0
q_8_3_3 0
q_8_3_4 8.8999867216434367e+01
q_8_3_5 0
q_8_4_0 0
q_8_4_1 0
q_8_4_2 0
q_8_4_3 0
q_8_4_4 0
q_8_4_5 0
q_9_0_0 0
q_9_0_1 0
q_9_0_2 0
q_9_0_3 0
q_9_0_4 0
q_9_0_5 0
q_9_1_0 0
q_9_1_1 0
q_9_1_2 0
q_9_1_3 0
q_9_1_4 0
q_9_1_5 0
q_9_2_0 0
q_9_2_1 154
q_9_2_2 0
q_9_2_3 6.4539402615082508e-05
q_9_2_4 0
q_9_2_5 0
q_9_3_0 0
q_9_3_1 0
q_9_3_2 0
q_9_3_3 1.5399993546059738e+02
q_9_3_4 0
q_9_3_5 0
q_9_4_0 0
q_9_4_1 0
q_9_4_2 0
q_9_4_3 0
q_9_4_4 0
q_9_4_5 0
q_10_0_0 96
q_10_0_1 0
q_10_0_2 0
q_10_0_3 0
q_10_0_4 0
q_10_0_5 0
q_10_1_0 0
q_10_1_1 0
q_10_1_2 3.2986089095860932e-11
q_10_1_3 0
q_10_1_4 1.9199971354556857e+02
q_10_1_5 0
q_10_2_0 0
q_10_2_1 0
q_10_2_2 192
q_10_2_3 0
q_10_2_4 0
q_10_2_5 0
q_10_3_0 0
q_10_3_1 0
q_10_3_2 0
q_10_3_3 0
q_10_3_4 2.8645443143204830e-04
q_10_3_5 0
q_10_4_0 0
q_10_4_1 0
q_10_4_2 0
q_10_4_3 0
q_10_4_4 0
q_10_4_5 0
y_0_0_0 1
y_0_0_1 1
y_0_0_2 1
y_0_0_3 1
y_0_0_4 1
y_0_0_5 0
y_0_1_0 0
y_0_1_1 1
y_0_1_2 1
y_0_1_3 1
y_0_1_4 1
y_0_1_5 0
y_0_2_0 0
y_0_2_1 1
y_0_2_2 1
y_0_2_3 1
y_0_2_4 1
y_0_2_5 0
y_0_3_0 0
y_0_3_1 1
y_0_3_2 1.6806422747768544e-07
y_0_3_3 9.9999958218772123e-01
y_0_3_4 1
y_0_3_5 0
y_0_4_0 0
y_0_4_1 1
y_0_4_2 0
y_0_4_3 0
y_0_4_4 0
y_0_4_5 0
y_1_0_0 0
y_1_0_1 1
y_1_0_2 0
y_1_0_3 0
y_1_0_4 1
y_1_0_5 0
y_1_1_0 0
y_1_1_1 0
y_1_1_2 0
y_1_1_3 0
y_1_1_4 0
y_1_1_5 0
y_1_2_0 0
y_1_2_1 0
y_1_2_2 0
y_1_2_3 0
y_1_2_4 0
y_1_2_5 0
y_1_3_0 0
y_1_3_1 0
y_1_3_2 0
y_1_3_3 0
y_1_3_4 0
y_1_3_5 0
y_1_4_0 0
y_1_4_1 0
y_1_4_2 0
y_1_4_3 0
y_1_4_4 0
y_1_4_5 0
y_2_0_0 0
y_2_0_1 0
y_2_0_2 0
y_2_0_3 1
y_2_0_4 0
y_2_0_5 0
y_2_1_0 0
y_2_1_1 1
y_2_1_2 0
y_2_1_3 0
y_2_1_4 0
y_2_1_5 0
y_2_2_0 0
y_2_2_1 0
y_2_2_2 0
y_2_2_3 0
y_2_2_4 0
y_2_2_5 0
y_2_3_0 0
y_2_3_1 0
y_2_3_2 0
y_2_3_3 0
y_2_3_4 0
y_2_3_5 0
y_2_4_0 0
y_2_4_1 0
y_2_4_2 0
y_2_4_3 0
y_2_4_4 0
y_2_4_5 0
y_3_0_0 0
y_3_0_1 0
y_3_0_2 0
y_3_0_3 0
y_3_0_4 0
y_3_0_5 0
y_3_1_0 0
y_3_1_1 0
y_3_1_2 0
y_3_1_3 1
y_3_1_4 0
y_3_1_5 0
y_3_2_0 0
y_3_2_1 1
y_3_2_2 0
y_3_2_3 0
y_3_2_4 0
y_3_2_5 0
y_3_3_0 0
y_3_3_1 0
y_3_3_2 0
y_3_3_3 0
y_3_3_4 0
y_3_3_5 0
y_3_4_0 0
y_3_4_1 0
y_3_4_2 0
y_3_4_3 0
y_3_4_4 0
y_3_4_5 0
y_4_0_0 0
y_4_0_1 1
y_4_0_2 0
y_4_0_3 0
y_4_0_4 1
y_4_0_5 0
y_4_1_0 0
y_4_1_1 0
y_4_1_2 0
y_4_1_3 1
y_4_1_4 0
y_4_1_5 0
y_4_2_0 0
y_4_2_1 0
y_4_2_2 0
y_4_2_3 0
y_4_2_4 0
y_4_2_5 0
y_4_3_0 0
y_4_3_1 0
y_4_3_2 0
y_4_3_3 0
y_4_3_4 0
y_4_3_5 0
y_4_4_0 0
y_4_4_1 0
y_4_4_2 0
y_4_4_3 0
y_4_4_4 0
y_4_4_5 0
y_5_0_0 0
y_5_0_1 0
y_5_0_2 0
y_5_0_3 0
y_5_0_4 0
y_5_0_5 0
y_5_1_0 0
y_5_1_1 0
y_5_1_2 9.9999978431822023e-01
y_5_1_3 1
y_5_1_4 0
y_5_1_5 0
y_5_2_0 0
y_5_2_1 0
y_5_2_2 0
y_5_2_3 0
y_5_2_4 0
y_5_2_5 0
y_5_3_0 0
y_5_3_1 0
y_5_3_2 2.1565651287681596e-07
y_5_3_3 0
y_5_3_4 0
y_5_3_5 0
y_5_4_0 0
y_5_4_1 0
y_5_4_2 0
y_5_4_3 0
y_5_4_4 0
y_5_4_5 0
y_6_0_0 0
y_6_0_1 0
y_6_0_2 0
y_6_0_3 0
y_6_0_4 0
y_6_0_5 0
y_6_1_0 0
y_6_1_1 0
y_6_1_2 9.9999995239393313e-01
y_6_1_3 0
y_6_1_4 1.4918861134559138e-06
y_6_1_5 0
y_6_2_0 0
y_6_2_1 0
y_6_2_2 0
y_6_2_3 0
y_6_2_4 0
y_6_2_5 0
y_6_3_0 0
y_6_3_1 0
y_6_3_2 2.3746050404014396e-08
y_6_3_3 0
y_6_3_4 0.99999850814599
y_6_3_5 0
y_6_4_0 0
y_6_4_1 1
y_6_4_2 0
y_6_4_3 0
y_6_4_4 0
y_6_4_5 0
y_7_0_0 1
y_7_0_1 0
y_7_0_2 1
y_7_0_3 0
y_7_0_4 0
y_7_0_5 0
y_7_1_0 0
y_7_1_1 0
y_7_1_2 0
y_7_1_3 0
y_7_1_4 0
y_7_1_5 0
y_7_2_0 0
y_7_2_1 0
y_7_2_2 0
y_7_2_3 0
y_7_2_4 1
y_7_2_5 0
y_7_3_0 0
y_7_3_1 0
y_7_3_2 0
y_7_3_3 0
y_7_3_4 0
y_7_3_5 0
y_7_4_0 0
y_7_4_1 0
y_7_4_2 0
y_7_4_3 0
y_7_4_4 0
y_7_4_5 0
y_8_0_0 0
y_8_0_1 0
y_8_0_2 0
y_8_0_3 0
y_8_0_4 0
y_8_0_5 0
y_8_1_0 0
y_8_1_1 0
y_8_1_2 4.1546945575127342e-07
y_8_1_3 0
y_8_1_4 1.4902194467337361e-06
y_8_1_5 0
y_8_2_0 0
y_8_2_1 0
y_8_2_2 0
y_8_2_3 9.9999958345321815e-01
y_8_2_4 0
y_8_2_5 0
y_8_3_0 0
y_8_3_1 1
y_8_3_2 0
y_8_3_3 0
y_8_3_4 0.999998509788579
y_8_3_5 0
y_8_4_0 0
y_8_4_1 0
y_8_4_2 0
y_8_4_3 0
y_8_4_4 0
y_8_4_5 0
y_9_0_0 0
y_9_0_1 0
y_9_0_2 0
y_9_0_3 0
y_9_0_4 0
y_9_0_5 0
y_9_1_0 0
y_9_1_1 0
y_9_1_2 0
y_9_1_3 0
y_9_1_4 0
y_9_1_5 0
y_9_2_0 0
y_9_2_1 1
y_9_2_2 0
y_9_2_3 4.1638011514985280e-07
y_9_2_4 0
y_9_2_5 0
y_9_3_0 0
y_9_3_1 0
y_9_3_2 0
y_9_3_3 9.9999958218772123e-01
y_9_3_4 0
y_9_3_5 0
y_9_4_0 0
y_9_4_1 0
y_9_4_2 0
y_9_4_3 0
y_9_4_4 0
y_9_4_5 0
y_10_0_0 1
y_10_0_1 0
y_10_0_2 0
y_10_0_3 0
y_10_0_4 0
y_10_0_5 0
y_10_1_0 0
y_10_1_1 0
y_10_1_2 0
y_10_1_3 0
y_10_1_4 9.9999850808331847e-01
y_10_1_5 0
y_10_2_0 0
y_10_2_1 0
y_10_2_2 1
y_10_2_3 0
y_10_2_4 0
y_10_2_5 0
y_10_3_0 0
y_10_3_1 0
y_10_3_2 0
y_10_3_3 0
y_10_3_4 1.4919241220419183e-06
y_10_3_5 0
y_10_4_0 0
y_10_4_1 0
y_10_4_2 0
y_10_4_3 0
y_10_4_4 0
y_10_4_5 0
x_0_1_0_0 0
x_0_1_0_1 1
x_0_1_0_2 0
x_0_1_0_3 0
x_0_1_0_4 1
x_0_1_0_5 0
x_0_1_1_0 0
x_0_1_1_1 0
x_0_1_1_2 0
x_0_1_1_3 0
x_0_1_1_4 0
x_0_1_1_5 0
x_0_1_2_0 0
x_0_1_2_1 0
x_0_1_2_2 0
x_0_1_2_3 0
x_0_1_2_4 0
x_0_1_2_5 0
x_0_1_3_0 0
x_0_1_3_1 0
x_0_1_3_2 0
x_0_1_3_3 0
x_0_1_3_4 0
x_0_1_3_5 0
x_0_1_4_0 0
x_0_1_4_1 0
x_0_1_4_2 0
x_0_1_4_3 0
x_0_1_4_4 0
x_0_1_4_5 0
x_0_2_0_0 0
x_0_2_0_1 0
x_0_2_0_2 0
x_0_2_0_3 2
x_0_2_0_4 0
x_0_2_0_5 0
x_0_2_1_0 0
x_0_2_1_1 2
x_0_2_1_2 0
x_0_2_1_3 0
x_0_2_1_4 0
x_0_2_1_5 0
x_0_2_2_0 0
x_0_2_2_1 0
x_0_2_2_2 0
x_0_2_2_3 0
x_0_2_2_4 0
x_0_2_2_5 0
x_0_2_3_0 0
x_0_2_3_1 0
x_0_2_3_2 0
x_0_2_3_3 0
x_0_2_3_4 0
x_0_2_3_5 0
x_0_2_4_0 0
x_0_2_4_1 0
x_0_2_4_2 0
x_0_2_4_3 0
x_0_2_4_4 0
x_0_2_4_5 0
x_0_3_0_0 0
x_0_3_0_1 0
x_0_3_0_2 0
x_0_3_0_3 0
x_0_3_0_4 0
x_0_3_0_5 0
x_0_3_1_0 0
x_0_3_1_1 0
x_0_3_1_2 0
x_0_3_1_3 1
x_0_3_1_4 0
x_0_3_1_5 0
x_0_3_2_0 0
x_0_3_2_1 1
x_0_3_2_2 0
x_0_3_2_3 0
x_0_3_2_4 0
x_0_3_2_5 0
x_0_3_3_0 0
x_0_3_3_1 0
x_0_3_3_2 0
x_0_3_3_3 0
x_0_3_3_4 0
x_0_3_3_5 0
x_0_3_4_0 0
x_0_3_4_1 0
x_0_3_4_2 0
x_0_3_4_3 0
x_0_3_4_4 0
x_0_3_4_5 0
x_0_4_0_0 0
x_0_4_0_1 1
x_0_4_0_2 0
x_0_4_0_3 0
x_0_4_0_4 1
x_0_4_0_5 0
x_0_4_1_0 0
x_0_4_1_1 0
x_0_4_1_2 0
x_0_4_1_3 0
x_0_4_1_4 0
x_0_4_1_5 0
x_0_4_2_0 0
x_0_4_2_1 0
x_0_4_2_2 0
x_0_4_2_3 0
x_0_4_2_4 0
x_0_4_2_5 0
x_0_4_3_0 0
x_0_4_3_1 0
x_0_4_3_2 0
x_0_4_3_3 0
x_0_4_3_4 0
x_0_4_3_5 0
x_0_4_4_0 0
x_0_4_4_1 0
x_0_4_4_2 0
x_0_4_4_3 0
x_0_4_4_4 0
x_0_4_4_5 0
x_0_5_0_0 0
x_0_5_0_1 0
x_0_5_0_2 0
x_0_5_0_3 0
x_0_5_0_4 0
x_0_5_0_5 0
x_0_5_1_0 0
x_0_5_1_1 0
x_0_5_1_2 9.9999961643810475e-01
x_0_5_1_3 1
x_0_5_1_4 0
x_0_5_1_5 0
x_0_5_2_0 0
x_0_5_2_1 0
x_0_5_2_2 0
x_0_5_2_3 0
x_0_5_2_4 0
x_0_5_2_5 0
x_0_5_3_0 0
x_0_5_3_1 0
x_0_5_3_2 3.8226414842959933e-07
x_0_5_3_3 0
x_0_5_3_4 0
x_0_5_3_5 0
x_0_5_4_0 0
x_0_5_4_1 0
x_0_5_4_2 0
x_0_5_4_3 0
x_0_5_4_4 0
x_0_5_4_5 0
x_0_6_0_0 0
x_0_6_0_1 0
x_0_6_0_2 0
x_0_6_0_3 0
x_0_6_0_4 0
x_0_6_0_5 0
x_0_6_1_0 0
x_0_6_1_1 0
x_0_6_1_2 9.9999974915188872e-01
x_0_6_1_3 0
x_0_6_1_4 1.4886168304122591e-06
x_0_6_1_5 0
x_0_6_2_0 0
x_0_6_2_1 0
x_0_6_2_2 0
x_0_6_2_3 0
x_0_6_2_4 0
x_0_6_2_5 0
x_0_6_3_0 0
x_0_6_3_1 0
x_0_6_3_2 0
x_0_6_3_3 0
x_0_6_3_4 9.9999850821740732e-01
x_0_6_3_5 0
x_0_6_4_0 0
x_0_6_4_1 2
x_0_6_4_2 0
x_0_6_4_3 0
x_0_6_4_4 0
x_0_6_4_5 0
x_0_7_0_0 1
x_0_7_0_1 0
x_0_7_0_2 2
x_0_7_0_3 0
x_0_7_0_4 0
x_0_7_0_5 0
x_0_7_1_0 0
x_0_7_1_1 0
x_0_7_1_2 0
x_0_7_1_3 0
x_0_7_1_4 0
x_0_7_1_5 0
x_0_7_2_0 0
x_0_7_2_1 0
x_0_7_2_2 0
x_0_7_2_3 0
x_0_7_2_4 2
x_0_7_2_5 0
x_0_7_3_0 0
x_0_7_3_1 0
x_0_7_3_2 0
x_0_7_3_3 0
x_0_7_3_4 0
x_0_7_3_5 0
x_0_7_4_0 0
x_0_7_4_1 0
x_0_7_4_2 0
x_0_7_4_3 0
x_0_7_4_4 0
x_0_7_4_5 0
x_0_8_0_0 0
x_0_8_0_1 0
x_0_8_0_2 0
x_0_8_0_3 0
x_0_8_0_4 0
x_0_8_0_5 0
x_0_8_1_0 0
x_0_8_1_1 0
x_0_8_1_2 6.3274299650361869e-07
x_0_8_1_3 0
x_0_8_1_4 1.49195016363457e-06
x_0_8_1_5 0
x_0_8_2_0 0
x_0_8_2_1 0
x_0_8_2_2 0
x_0_8_2_3 1.9999991620654265e+00
x_0_8_2_4 0
x_0_8_2_5 0
x_0_8_3_0 0
x_0_8_3_1 2
x_0_8_3_2 -4.7380731850534068e-08
x_0_8_3_3 0
x_0_8_3_4 9.9999850828941039e-01
x_0_8_3_5 0
x_0_8_4_0 0
x_0_8_4_1 0
x_0_8_4_2 0
x_0_8_4_3 0
x_0_8_4_4 0
x_0_8_4_5 0
x_0_9_0_0 0
x_0_9_0_1 0
x_0_9_0_2 0
x_0_9_0_3 0
x_0_9_0_4 0
x_0_9_0_5 0
x_0_9_1_0 0
x_0_9_1_1 0
x_0_9_1_2 0
x_0_9_1_3 0
x_0_9_1_4 0
x_0_9_1_5 0
x_0_9_2_0 0
x_0_9_2_1 1
x_0_9_2_2 0
x_0_9_2_3 8.3543457358484123e-07
x_0_9_2_4 0
x_0_9_2_5 0
x_0_9_3_0 0
x_0_9_3_1 0
x_0_9_3_2 0
x_0_9_3_3 1.9999991619732824e+00
x_0_9_3_4 0
x_0_9_3_5 0
x_0_9_4_0 0
x_0_9_4_1 0
x_0_9_4_2 0
x_0_9_4_3 0
x_0_9_4_4 0
x_0_9_4_5 0
x_0_10_0_0 1
x_0_10_0_1 0
x_0_10_0_2 0
x_0_10_0_3 0
x_0_10_0_4 0
x_0_10_0_5 0
x_0_10_1_0 0
x_0_10_1_1 0
x_0_10_1_2 3.4360509474855137e-13
x_0_10_1_3 0
x_0_10_1_4 1.9999970162396976e+00
x_0_10_1_5 0
x_0_10_2_0 0
x_0_10_2_1 0
x_0_10_2_2 2
x_0_10_2_3 0
x_0_10_2_4 0
x_0_10_2_5 0
x_0_10_3_0 0
x_0_10_3_1 0
x_0_10_3_2 0
x_0_10_3_3 0
x_0_10_3_4 2.9812633784859005e-06
x_0_10_3_5 0
x_0_10_4_0 0
x_0_10_4_1 0
x_0_10_4_2 0
x_0_10_4_3 0
x_0_10_4_4 0
x_0_10_4_5 0
x_1_2_0_0 0
x_1_2_0_1 0
x_1_2_0_2 0
x_1_2_0_3 0
x_1_2_0_4 0
x_1_2_0_5 0
x_1_2_1_0 0
x_1_2_1_1 0
x_1_2_1_2 0
x_1_2_1_3 0
x_1_2_1_4 0
x_1_2_1_5 0
x_1_2_2_0 0
x_1_2_2_1 0
x_1_2_2_2 0
x_1_2_2_3 0
x_1_2_2_4 0
x_1_2_2_5 0
x_1_2_3_0 0
x_1_2_3_1 0
x_1_2_3_2 0
x_1_2_3_3 0
x_1_2_3_4 0
x_1_2_3_5 0
x_1_2_4_0 0
x_1_2_4_1 0
x_1_2_4_2 0
x_1_2_4_3 0
x_1_2_4_4 0
x_1_2_4_5 0
x_1_3_0_0 0
x_1_3_0_1 0
x_1_3_0_2 0
x_1_3_0_3 0
x_1_3_0_4 0
x_1_3_0_5 0
x_1_3_1_0 0
x_1_3_1_1 0
x_1_3_1_2 0
x_1_3_1_3 0
x_1_3_1_4 0
x_1_3_1_5 0
x_1_3_2_0 0
x_1_3_2_1 0
x_1_3_2_2 0
x_1_3_2_3 0
x_1_3_2_4 0
x_1_3_2_5 0
x_1_3_3_0 0
x_1_3_3_1 0
x_1_3_3_2 0
x_1_3_3_3 0
x_1_3_3_4 0
x_1_3_3_5 0
x_1_3_4_0 0
x_1_3_4_1 0
x_1_3_4_2 0
x_1_3_4_3 0
x_1_3_4_4 0
x_1_3_4_5 0
x_1_4_0_0 0
x_1_4_0_1 1
x_1_4_0_2 0
x_1_4_0_3 0
x_1_4_0_4 1
x_1_4_0_5 0
x_1_4_1_0 0
x_1_4_1_1 0
x_1_4_1_2 0
x_1_4_1_3 0
x_1_4_1_4 0
x_1_4_1_5 0
x_1_4_2_0 0
x_1_4_2_1 0
x_1_4_2_2 0
x_1_4_2_3 0
x_1_4_2_4 0
x_1_4_2_5 0
x_1_4_3_0 0
x_1_4_3_1 0
x_1_4_3_2 0
x_1_4_3_3 0
x_1_4_3_4 0
x_1_4_3_5 0
x_1_4_4_0 0
x_1_4_4_1 0
x_1_4_4_2 0
x_1_4_4_3 0
x_1_4_4_4 0
x_1_4_4_5 0
x_1_5_0_0 0
x_1_5_0_1 0
x_1_5_0_2 0
x_1_5_0_3 0
x_1_5_0_4 0
x_1_5_0_5 0
x_1_5_1_0 0
x_1_5_1_1 0
x_1_5_1_2 0
x_1_5_1_3 0
x_1_5_1_4 0
x_1_5_1_5 0
x_1_5_2_0 0
x_1_5_2_1 0
x_1_5_2_2 0
x_1_5_2_3 0
x_1_5_2_4 0
x_1_5_2_5 0
x_1_5_3_0 0
x_1_5_3_1 0
x_1_5_3_2 0
x_1_5_3_3 0
x_1_5_3_4 0
x_1_5_3_5 0
x_1_5_4_0 0
x_1_5_4_1 0
x_1_5_4_2 0
x_1_5_4_3 0
x_1_5_4_4 0
x_1_5_4_5 0
x_1_6_0_0 0
x_1_6_0_1 0
x_1_6_0_2 0
x_1_6_0_3 0
x_1_6_0_4 0
x_1_6_0_5 0
x_1_6_1_0 0
x_1_6_1_1 0
x_1_6_1_2 0
x_1_6_1_3 0
x_1_6_1_4 0
x_1_6_1_5 0
x_1_6_2_0 0
x_1_6_2_1 0
x_1_6_2_2 0
x_1_6_2_3 0
x_1_6_2_4 0
x_1_6_2_5 0
x_1_6_3_0 0
x_1_6_3_1 0
x_1_6_3_2 0
x_1_6_3_3 0
x_1_6_3_4 0
x_1_6_3_5 0
x_1_6_4_0 0
x_1_6_4_1 0
x_1_6_4_2 0
x_1_6_4_3 0
x_1_6_4_4 0
x_1_6_4_5 0
x_1_7_0_0 0
x_1_7_0_1 0
x_1_7_0_2 0
x_1_7_0_3 0
x_1_7_0_4 0
x_1_7_0_5 0
x_1_7_1_0 0
x_1_7_1_1 0
x_1_7_1_2 0
x_1_7_1_3 0
x_1_7_1_4 0
x_1_7_1_5 0
x_1_7_2_0 0
x_1_7_2_1 0
x_1_7_2_2 0
x_1_7_2_3 0
x_1_7_2_4 0
x_1_7_2_5 0
x_1_7_3_0 0
x_1_7_3_1 0
x_1_7_3_2 0
x_1_7_3_3 0
x_1_7_3_4 0
x_1_7_3_5 0
x_1_7_4_0 0
x_1_7_4_1 0
x_1_7_4_2 0
x_1_7_4_3 0
x_1_7_4_4 0
x_1_7_4_5 0
x_1_8_0_0 0
x_1_8_0_1 0
x_1_8_0_2 0
x_1_8_0_3 0
x_1_8_0_4 0
x_1_8_0_5 0
x_1_8_1_0 0
x_1_8_1_1 0
x_1_8_1_2 0
x_1_8_1_3 0
x_1_8_1_4 0
x_1_8_1_5 0
x_1_8_2_0 0
x_1_8_2_1 0
x_1_8_2_2 0
x_1_8_2_3 0
x_1_8_2_4 0
x_1_8_2_5 0
x_1_8_3_0 0
x_1_8_3_1 0
x_1_8_3_2 0
x_1_8_3_3 0
x_1_8_3_4 0
x_1_8_3_5 0
x_1_8_4_0 0
x_1_8_4_1 0
x_1_8_4_2 0
x_1_8_4_3 0
x_1_8_4_4 0
x_1_8_4_5 0
x_1_9_0_0 0
x_1_9_0_1 0
x_1_9_0_2 0
x_1_9_0_3 0
x_1_9_0_4 0
x_1_9_0_5 0
x_1_9_1_0 0
x_1_9_1_1 0
x_1_9_1_2 0
x_1_9_1_3 0
x_1_9_1_4 0
x_1_9_1_5 0
x_1_9_2_0 0
x_1_9_2_1 0
x_1_9_2_2 0
x_1_9_2_3 0
x_1_9_2_4 0
x_1_9_2_5 0
x_1_9_3_0 0
x_1_9_3_1 0
x_1_9_3_2 0
x_1_9_3_3 0
x_1_9_3_4 0
x_1_9_3_5 0
x_1_9_4_0 0
x_1_9_4_1 0
x_1_9_4_2 0
x_1_9_4_3 0
x_1_9_4_4 0
x_1_9_4_5 0
x_1_10_0_0 0
x_1_10_0_1 0
x_1_10_0_2 0
x_1_10_0_3 0
x_1_10_0_4 0
x_1_10_0_5 0
x_1_10_1_0 0
x_1_10_1_1 0
x_1_10_1_2 0
x_1_10_1_3 0
x_1_10_1_4 0
x_1_10_1_5 0
x_1_10_2_0 0
x_1_10_2_1 0
x_1_10_2_2 0
x_1_10_2_3 0
x_1_10_2_4 0
x_1_10_2_5 0
x_1_10_3_0 0
x_1_10_3_1 0
x_1_10_3_2 0
x_1_10_3_3 0
x_1_10_3_4 0
x_1_10_3_5 0
x_1_10_4_0 0
x_1_10_4_1 0
x_1_10_4_2 0
x_1_10_4_3 0
x_1_10_4_4 0
x_1_10_4_5 0
x_2_3_0_0 0
x_2_3_0_1 0
x_2_3_0_2 0
x_2_3_0_3 0
x_2_3_0_4 0
x_2_3_0_5 0
x_2_3_1_0 0
x_2_3_1_1 0
x_2_3_1_2 0
x_2_3_1_3 0
x_2_3_1_4 0
x_2_3_1_5 0
x_2_3_2_0 0
x_2_3_2_1 0
x_2_3_2_2 0
x_2_3_2_3 0
x_2_3_2_4 0
x_2_3_2_5 0
x_2_3_3_0 0
x_2_3_3_1 0
x_2_3_3_2 0
x_2_3_3_3 0
x_2_3_3_4 0
x_2_3_3_5 0
x_2_3_4_0 0
x_2_3_4_1 0
x_2_3_4_2 0
x_2_3_4_3 0
x_2_3_4_4 0
x_2_3_4_5 0
x_2_4_0_0 0
x_2_4_0_1 0
x_2_4_0_2 0
x_2_4_0_3 0
x_2_4_0_4 0
x_2_4_0_5 0
x_2_4_1_0 0
x_2_4_1_1 0
x_2_4_1_2 0
x_2_4_1_3 0
x_2_4_1_4 0
x_2_4_1_5 0
x_2_4_2_0 0
x_2_4_2_1 0
x_2_4_2_2 0
x_2_4_2_3 0
x_2_4_2_4 0
x_2_4_2_5 0
x_2_4_3_0 0
x_2_4_3_1 0
x_2_4_3_2 0
x_2_4_3_3 0
x_2_4_3_4 0
x_2_4_3_5 0
x_2_4_4_0 0
x_2_4_4_1 0
x_2_4_4_2 0
x_2_4_4_3 0
x_2_4_4_4 0
x_2_4_4_5 0
x_2_5_0_0 0
x_2_5_0_1 0
x_2_5_0_2 0
x_2_5_0_3 0
x_2_5_0_4 0
x_2_5_0_5 0
x_2_5_1_0 0
x_2_5_1_1 0
x_2_5_1_2 0
x_2_5_1_3 0
x_2_5_1_4 0
x_2_5_1_5 0
x_2_5_2_0 0
x_2_5_2_1 0
x_2_5_2_2 0
x_2_5_2_3 0
x_2_5_2_4 0
x_2_5_2_5 0
x_2_5_3_0 0
x_2_5_3_1 0
x_2_5_3_2 0
x_2_5_3_3 0
x_2_5_3_4 0
x_2_5_3_5 0
x_2_5_4_0 0
x_2_5_4_1 0
x_2_5_4_2 0
x_2_5_4_3 0
x_2_5_4_4 0
x_2_5_4_5 0
x_2_6_0_0 0
x_2_6_0_1 0
x_2_6_0_2 0
x_2_6_0_3 0
x_2_6_0_4 0
x_2_6_0_5 0
x_2_6_1_0 0
x_2_6_1_1 0
x_2_6_1_2 0
x_2_6_1_3 0
x_2_6_1_4 0
x_2_6_1_5 0
x_2_6_2_0 0
x_2_6_2_1 0
x_2_6_2_2 0
x_2_6_2_3 0
x_2_6_2_4 0
x_2_6_2_5 0
x_2_6_3_0 0
x_2_6_3_1 0
x_2_6_3_2 0
x_2_6_3_3 0
x_2_6_3_4 0
x_2_6_3_5 0
x_2_6_4_0 0
x_2_6_4_1 0
x_2_6_4_2 0
x_2_6_4_3 0
x_2_6_4_4 0
x_2_6_4_5 0
x_2_7_0_0 0
x_2_7_0_1 0
x_2_7_0_2 0
x_2_7_0_3 0
x_2_7_0_4 0
x_2_7_0_5 0
x_2_7_1_0 0
x_2_7_1_1 0
x_2_7_1_2 0
x_2_7_1_3 0
x_2_7_1_4 0
x_2_7_1_5 0
x_2_7_2_0 0
x_2_7_2_1 0
x_2_7_2_2 0
x_2_7_2_3 0
x_2_7_2_4 0
x_2_7_2_5 0
x_2_7_3_0 0
x_2_7_3_1 0
x_2_7_3_2 0
x_2_7_3_3 0
x_2_7_3_4 0
x_2_7_3_5 0
x_2_7_4_0 0
x_2_7_4_1 0
x_2_7_4_2 0
x_2_7_4_3 0
x_2_7_4_4 0
x_2_7_4_5 0
x_2_8_0_0 0
x_2_8_0_1 0
x_2_8_0_2 0
x_2_8_0_3 0
x_2_8_0_4 0
x_2_8_0_5 0
x_2_8_1_0 0
x_2_8_1_1 0
x_2_8_1_2 0
x_2_8_1_3 0
x_2_8_1_4 0
x_2_8_1_5 0
x_2_8_2_0 0
x_2_8_2_1 0
x_2_8_2_2 0
x_2_8_2_3 0
x_2_8_2_4 0
x_2_8_2_5 0
x_2_8_3_0 0
x_2_8_3_1 0
x_2_8_3_2 0
x_2_8_3_3 0
x_2_8_3_4 0
x_2_8_3_5 0
x_2_8_4_0 0
x_2_8_4_1 0
x_2_8_4_2 0
x_2_8_4_3 0
x_2_8_4_4 0
x_2_8_4_5 0
x_2_9_0_0 0
x_2_9_0_1 0
x_2_9_0_2 0
x_2_9_0_3 0
x_2_9_0_4 0
x_2_9_0_5 0
x_2_9_1_0 0
x_2_9_1_1 0
x_2_9_1_2 0
x_2_9_1_3 0
x_2_9_1_4 0
x_2_9_1_5 0
x_2_9_2_0 0
x_2_9_2_1 0
x_2_9_2_2 0
x_2_9_2_3 0
x_2_9_2_4 0
x_2_9_2_5 0
x_2_9_3_0 0
x_2_9_3_1 0
x_2_9_3_2 0
x_2_9_3_3 0
x_2_9_3_4 0
x_2_9_3_5 0
x_2_9_4_0 0
x_2_9_4_1 0
x_2_9_4_2 0
x_2_9_4_3 0
x_2_9_4_4 0
x_2_9_4_5 0
x_2_10_0_0 0
x_2_10_0_1 0
x_2_10_0_2 0
x_2_10_0_3 0
x_2_10_0_4 0
x_2_10_0_5 0
x_2_10_1_0 0
x_2_10_1_1 0
x_2_10_1_2 0
x_2_10_1_3 0
x_2_10_1_4 0
x_2_10_1_5 0
x_2_10_2_0 0
x_2_10_2_1 0
x_2_10_2_2 0
x_2_10_2_3 0
x_2_10_2_4 0
x_2_10_2_5 0
x_2_10_3_0 0
x_2_10_3_1 0
x_2_10_3_2 0
x_2_10_3_3 0
x_2_10_3_4 0
x_2_10_3_5 0
x_2_10_4_0 0
x_2_10_4_1 0
x_2_10_4_2 0
x_2_10_4_3 0
x_2_10_4_4 0
x_2_10_4_5 0
x_3_4_0_0 0
x_3_4_0_1 0
x_3_4_0_2 0
x_3_4_0_3 0
x_3_4_0_4 0
x_3_4_0_5 0
x_3_4_1_0 0
x_3_4_1_1 0
x_3_4_1_2 0
x_3_4_1_3 1
x_3_4_1_4 0
x_3_4_1_5 0
x_3_4_2_0 0
x_3_4_2_1 0
x_3_4_2_2 0
x_3_4_2_3 0
x_3_4_2_4 0
x_3_4_2_5 0
x_3_4_3_0 0
x_3_4_3_1 0
x_3_4_3_2 0
x_3_4_3_3 0
x_3_4_3_4 0
x_3_4_3_5 0
x_3_4_4_0 0
x_3_4_4_1 0
x_3_4_4_2 0
x_3_4_4_3 0
x_3_4_4_4 0
x_3_4_4_5 0
x_3_5_0_0 0
x_3_5_0_1 0
x_3_5_0_2 0
x_3_5_0_3 0
x_3_5_0_4 0
x_3_5_0_5 0
x_3_5_1_0 0
x_3_5_1_1 0
x_3_5_1_2 0
x_3_5_1_3 0
x_3_5_1_4 0
x_3_5_1_5 0
x_3_5_2_0 0
x_3_5_2_1 0
x_3_5_2_2 0
x_3_5_2_3 0
x_3_5_2_4 0
x_3_5_2_5 0
x_3_5_3_0 0
x_3_5_3_1 0
x_3_5_3_2 0
x_3_5_3_3 0
x_3_5_3_4 0
x_3_5_3_5 0
x_3_5_4_0 0
x_3_5_4_1 0
x_3_5_4_2 0
x_3_5_4_3 0
x_3_5_4_4 0
x_3_5_4_5 0
x_3_6_0_0 0
x_3_6_0_1 0
x_3_6_0_2 0
x_3_6_0_3 0
x_3_6_0_4 0
x_3_6_0_5 0
x_3_6_1_0 0
x_3_6_1_1 0
x_3_6_1_2 0
x_3_6_1_3 0
x_3_6_1_4 0
x_3_6_1_5 0
x_3_6_2_0 0
x_3_6_2_1 0
x_3_6_2_2 0
x_3_6_2_3 0
x_3_6_2_4 0
x_3_6_2_5 0
x_3_6_3_0 0
x_3_6_3_1 0
x_3_6_3_2 0
x_3_6_3_3 0
x_3_6_3_4 0
x_3_6_3_5 0
x_3_6_4_0 0
x_3_6_4_1 0
x_3_6_4_2 0
x_3_6_4_3 0
x_3_6_4_4 0
x_3_6_4_5 0
x_3_7_0_0 0
x_3_7_0_1 0
x_3_7_0_2 0
x_3_7_0_3 0
x_3_7_0_4 0
x_3_7_0_5 0
x_3_7_1_0 0
x_3_7_1_1 0
x_3_7_1_2 0
x_3_7_1_3 0
x_3_7_1_4 0
x_3_7_1_5 0
x_3_7_2_0 0
x_3_7_2_1 0
x_3_7_2_2 0
x_3_7_2_3 0
x_3_7_2_4 0
x_3_7_2_5 0
x_3_7_3_0 0
x_3_7_3_1 0
x_3_7_3_2 0
x_3_7_3_3 0
x_3_7_3_4 0
x_3_7_3_5 0
x_3_7_4_0 0
x_3_7_4_1 0
x_3_7_4_2 0
x_3_7_4_3 0
x_3_7_4_4 0
x_3_7_4_5 0
x_3_8_0_0 0
x_3_8_0_1 0
x_3_8_0_2 0
x_3_8_0_3 0
x_3_8_0_4 0
x_3_8_0_5 0
x_3_8_1_0 0
x_3_8_1_1 0
x_3_8_1_2 0
x_3_8_1_3 0
x_3_8_1_4 0
x_3_8_1_5 0
x_3_8_2_0 0
x_3_8_2_1 0
x_3_8_2_2 0
x_3_8_2_3 0
x_3_8_2_4 0
x_3_8_2_5 0
x_3_8_3_0 0
x_3_8_3_1 0
x_3_8_3_2 0
x_3_8_3_3 0
x_3_8_3_4 0
x_3_8_3_5 0
x_3_8_4_0 0
x_3_8_4_1 0
x_3_8_4_2 0
x_3_8_4_3 0
x_3_8_4_4 0
x_3_8_4_5 0
x_3_9_0_0 0
x_3_9_0_1 0
x_3_9_0_2 0
x_3_9_0_3 0
x_3_9_0_4 0
x_3_9_0_5 0
x_3_9_1_0 0
x_3_9_1_1 0
x_3_9_1_2 0
x_3_9_1_3 0
x_3_9_1_4 0
x_3_9_1_5 0
x_3_9_2_0 0
x_3_9_2_1 1
x_3_9_2_2 0
x_3_9_2_3 0
x_3_9_2_4 0
x_3_9_2_5 0
x_3_9_3_0 0
x_3_9_3_1 0
x_3_9_3_2 0
x_3_9_3_3 0
x_3_9_3_4 0
x_3_9_3_5 0
x_3_9_4_0 0
x_3_9_4_1 0
x_3_9_4_2 0
x_3_9_4_3 0
x_3_9_4_4 0
x_3_9_4_5 0
x_3_10_0_0 0
x_3_10_0_1 0
x_3_10_0_2 0
x_3_10_0_3 0
x_3_10_0_4 0
x_3_10_0_5 0
x_3_10_1_0 0
x_3_10_1_1 0
x_3_10_1_2 0
x_3_10_1_3 0
x_3_10_1_4 0
x_3_10_1_5 0
x_3_10_2_0 0
x_3_10_2_1 0
x_3_10_2_2 0
x_3_10_2_3 0
x_3_10_2_4 0
x_3_10_2_5 0
x_3_10_3_0 0
x_3_10_3_1 0
x_3_10_3_2 0
x_3_10_3_3 0
x_3_10_3_4 0
x_3_10_3_5 0
x_3_10_4_0 0
x_3_10_4_1 0
x_3_10_4_2 0
x_3_10_4_3 0
x_3_10_4_4 0
x_3_10_4_5 0
x_4_5_0_0 0
x_4_5_0_1 0
x_4_5_0_2 0
x_4_5_0_3 0
x_4_5_0_4 0
x_4_5_0_5 0
x_4_5_1_0 0
x_4_5_1_1 0
x_4_5_1_2 0
x_4_5_1_3 1
x_4_5_1_4 0
x_4_5_1_5 0
x_4_5_2_0 0
x_4_5_2_1 0
x_4_5_2_2 0
x_4_5_2_3 0
x_4_5_2_4 0
x_4_5_2_5 0
x_4_5_3_0 0
x_4_5_3_1 0
x_4_5_3_2 0
x_4_5_3_3 0
x_4_5_3_4 0
x_4_5_3_5 0
x_4_5_4_0 0
x_4_5_4_1 0
x_4_5_4_2 0
x_4_5_4_3 0
x_4_5_4_4 0
x_4_5_4_5 0
x_4_6_0_0 0
x_4_6_0_1 0
x_4_6_0_2 0
x_4_6_0_3 0
x_4_6_0_4 0
x_4_6_0_5 0
x_4_6_1_0 0
x_4_6_1_1 0
x_4_6_1_2 0
x_4_6_1_3 0
x_4_6_1_4 0
x_4_6_1_5 0
x_4_6_2_0 0
x_4_6_2_1 0
x_4_6_2_2 0
x_4_6_2_3 0
x_4_6_2_4 0
x_4_6_2_5 0
x_4_6_3_0 0
x_4_6_3_1 0
x_4_6_3_2 0
x_4_6_3_3 0
x_4_6_3_4 0
x_4_6_3_5 0
x_4_6_4_0 0
x_4_6_4_1 0
x_4_6_4_2 0
x_4_6_4_3 0
x_4_6_4_4 0
x_4_6_4_5 0
x_4_7_0_0 0
x_4_7_0_1 0
x_4_7_0_2 0
x_4_7_0_3 0
x_4_7_0_4 0
x_4_7_0_5 0
x_4_7_1_0 0
x_4_7_1_1 0
x_4_7_1_2 0
x_4_7_1_3 0
x_4_7_1_4 0
x_4_7_1_5 0
x_4_7_2_0 0
x_4_7_2_1 0
x_4_7_2_2 0
x_4_7_2_3 0
x_4_7_2_4 0
x_4_7_2_5 0
x_4_7_3_0 0
x_4_7_3_1 0
x_4_7_3_2 0
x_4_7_3_3 0
x_4_7_3_4 0
x_4_7_3_5 0
x_4_7_4_0 0
x_4_7_4_1 0
x_4_7_4_2 0
x_4_7_4_3 0
x_4_7_4_4 0
x_4_7_4_5 0
x_4_8_0_0 0
x_4_8_0_1 0
x_4_8_0_2 0
x_4_8_0_3 0
x_4_8_0_4 0
x_4_8_0_5 0
x_4_8_1_0 0
x_4_8_1_1 0
x_4_8_1_2 0
x_4_8_1_3 0
x_4_8_1_4 0
x_4_8_1_5 0
x_4_8_2_0 0
x_4_8_2_1 0
x_4_8_2_2 0
x_4_8_2_3 0
x_4_8_2_4 0
x_4_8_2_5 0
x_4_8_3_0 0
x_4_8_3_1 0
x_4_8_3_2 0
x_4_8_3_3 0
x_4_8_3_4 0
x_4_8_3_5 0
x_4_8_4_0 0
x_4_8_4_1 0
x_4_8_4_2 0
x_4_8_4_3 0
x_4_8_4_4 0
x_4_8_4_5 0
x_4_9_0_0 0
x_4_9_0_1 0
x_4_9_0_2 0
x_4_9_0_3 0
x_4_9_0_4 0
x_4_9_0_5 0
x_4_9_1_0 0
x_4_9_1_1 0
x_4_9_1_2 0
x_4_9_1_3 0
x_4_9_1_4 0
x_4_9_1_5 0
x_4_9_2_0 0
x_4_9_2_1 0
x_4_9_2_2 0
x_4_9_2_3 0
x_4_9_2_4 0
x_4_9_2_5 0
x_4_9_3_0 0
x_4_9_3_1 0
x_4_9_3_2 0
x_4_9_3_3 0
x_4_9_3_4 0
x_4_9_3_5 0
x_4_9_4_0 0
x_4_9_4_1 0
x_4_9_4_2 0
x_4_9_4_3 0
x_4_9_4_4 0
x_4_9_4_5 0
x_4_10_0_0 0
x_4_10_0_1 0
x_4_10_0_2 0
x_4_10_0_3 0
x_4_10_0_4 0
x_4_10_0_5 0
x_4_10_1_0 0
x_4_10_1_1 0
x_4_10_1_2 0
x_4_10_1_3 0
x_4_10_1_4 0
x_4_10_1_5 0
x_4_10_2_0 0
x_4_10_2_1 0
x_4_10_2_2 0
x_4_10_2_3 0
x_4_10_2_4 0
x_4_10_2_5 0
x_4_10_3_0 0
x_4_10_3_1 0
x_4_10_3_2 0
x_4_10_3_3 0
x_4_10_3_4 0
x_4_10_3_5 0
x_4_10_4_0 0
x_4_10_4_1 0
x_4_10_4_2 0
x_4_10_4_3 0
x_4_10_4_4 0
x_4_10_4_5 0
x_5_6_0_0 0
x_5_6_0_1 0
x_5_6_0_2 0
x_5_6_0_3 0
x_5_6_0_4 0
x_5_6_0_5 0
x_5_6_1_0 0
x_5_6_1_1 0
x_5_6_1_2 9.9999995251446727e-01
x_5_6_1_3 0
x_5_6_1_4 0
x_5_6_1_5 0
x_5_6_2_0 0
x_5_6_2_1 0
x_5_6_2_2 0
x_5_6_2_3 0
x_5_6_2_4 0
x_5_6_2_5 0
x_5_6_3_0 0
x_5_6_3_1 0
x_5_6_3_2 4.5715543990699304e-08
x_5_6_3_3 0
x_5_6_3_4 0
x_5_6_3_5 0
x_5_6_4_0 0
x_5_6_4_1 0
x_5_6_4_2 0
x_5_6_4_3 0
x_5_6_4_4 0
x_5_6_4_5 0
x_5_7_0_0 0
x_5_7_0_1 0
x_5_7_0_2 0
x_5_7_0_3 0
x_5_7_0_4 0
x_5_7_0_5 0
x_5_7_1_0 0
x_5_7_1_1 0
x_5_7_1_2 0
x_5_7_1_3 0
x_5_7_1_4 0
x_5_7_1_5 0
x_5_7_2_0 0
x_5_7_2_1 0
x_5_7_2_2 0
x_5_7_2_3 0
x_5_7_2_4 0
x_5_7_2_5 0
x_5_7_3_0 0
x_5_7_3_1 0
x_5_7_3_2 0
x_5_7_3_3 0
x_5_7_3_4 0
x_5_7_3_5 0
x_5_7_4_0 0
x_5_7_4_1 0
x_5_7_4_2 0
x_5_7_4_3 0
x_5_7_4_4 0
x_5_7_4_5 0
x_5_8_0_0 0
x_5_8_0_1 0
x_5_8_0_2 0
x_5_8_0_3 0
x_5_8_0_4 0
x_5_8_0_5 0
x_5_8_1_0 0
x_5_8_1_1 0
x_5_8_1_2 0
x_5_8_1_3 0
x_5_8_1_4 0
x_5_8_1_5 0
x_5_8_2_0 0
x_5_8_2_1 0
x_5_8_2_2 0
x_5_8_2_3 0
x_5_8_2_4 0
x_5_8_2_5 0
x_5_8_3_0 0
x_5_8_3_1 0
x_5_8_3_2 0
x_5_8_3_3 0
x_5_8_3_4 0
x_5_8_3_5 0
x_5_8_4_0 0
x_5_8_4_1 0
x_5_8_4_2 0
x_5_8_4_3 0
x_5_8_4_4 0
x_5_8_4_5 0
x_5_9_0_0 0
x_5_9_0_1 0
x_5_9_0_2 0
x_5_9_0_3 0
x_5_9_0_4 0
x_5_9_0_5 0
x_5_9_1_0 0
x_5_9_1_1 0
x_5_9_1_2 0
x_5_9_1_3 0
x_5_9_1_4 0
x_5_9_1_5 0
x_5_9_2_0 0
x_5_9_2_1 0
x_5_9_2_2 0
x_5_9_2_3 0
x_5_9_2_4 0
x_5_9_2_5 0
x_5_9_3_0 0
x_5_9_3_1 0
x_5_9_3_2 0
x_5_9_3_3 0
x_5_9_3_4 0
x_5_9_3_5 0
x_5_9_4_0 0
x_5_9_4_1 0
x_5_9_4_2 0
x_5_9_4_3 0
x_5_9_4_4 0
x_5_9_4_5 0
x_5_10_0_0 0
x_5_10_0_1 0
x_5_10_0_2 0
x_5_10_0_3 0
x_5_10_0_4 0
x_5_10_0_5 0
x_5_10_1_0 0
x_5_10_1_1 0
x_5_10_1_2 0
x_5_10_1_3 0
x_5_10_1_4 0
x_5_10_1_5 0
x_5_10_2_0 0
x_5_10_2_1 0
x_5_10_2_2 0
x_5_10_2_3 0
x_5_10_2_4 0
x_5_10_2_5 0
x_5_10_3_0 0
x_5_10_3_1 0
x_5_10_3_2 0
x_5_10_3_3 0
x_5_10_3_4 0
x_5_10_3_5 0
x_5_10_4_0 0
x_5_10_4_1 0
x_5_10_4_2 0
x_5_10_4_3 0
x_5_10_4_4 0
x_5_10_4_5 0
x_6_7_0_0 0
x_6_7_0_1 0
x_6_7_0_2 0
x_6_7_0_3 0
x_6_7_0_4 0
x_6_7_0_5 0
x_6_7_1_0 0
x_6_7_1_1 0
x_6_7_1_2 0
x_6_7_1_3 0
x_6_7_1_4 0
x_6_7_1_5 0
x_6_7_2_0 0
x_6_7_2_1 0
x_6_7_2_2 0
x_6_7_2_3 0
x_6_7_2_4 0
x_6_7_2_5 0
x_6_7_3_0 0
x_6_7_3_1 0
x_6_7_3_2 0
x_6_7_3_3 0
x_6_7_3_4 0
x_6_7_3_5 0
x_6_7_4_0 0
x_6_7_4_1 0
x_6_7_4_2 0
x_6_7_4_3 0
x_6_7_4_4 0
x_6_7_4_5 0
x_6_8_0_0 0
x_6_8_0_1 0
x_6_8_0_2 0
x_6_8_0_3 0
x_6_8_0_4 0
x_6_8_0_5 0
x_6_8_1_0 0
x_6_8_1_1 0
x_6_8_1_2 2.0062151022310308e-07
x_6_8_1_3 0
x_6_8_1_4 1.4918220631662354e-06
x_6_8_1_5 0
x_6_8_2_0 0
x_6_8_2_1 0
x_6_8_2_2 0
x_6_8_2_3 0
x_6_8_2_4 0
x_6_8_2_5 0
x_6_8_3_0 0
x_6_8_3_1 0
x_6_8_3_2 0
x_6_8_3_3 0
x_6_8_3_4 9.9999850824515757e-01
x_6_8_3_5 0
x_6_8_4_0 0
x_6_8_4_1 0
x_6_8_4_2 0
x_6_8_4_3 0
x_6_8_4_4 0
x_6_8_4_5 0
x_6_9_0_0 0
x_6_9_0_1 0
x_6_9_0_2 0
x_6_9_0_3 0
x_6_9_0_4 0
x_6_9_0_5 0
x_6_9_1_0 0
x_6_9_1_1 0
x_6_9_1_2 0
x_6_9_1_3 0
x_6_9_1_4 0
x_6_9_1_5 0
x_6_9_2_0 0
x_6_9_2_1 0
x_6_9_2_2 0
x_6_9_2_3 0
x_6_9_2_4 0
x_6_9_2_5 0
x_6_9_3_0 0
x_6_9_3_1 0
x_6_9_3_2 0
x_6_9_3_3 0
x_6_9_3_4 0
x_6_9_3_5 0
x_6_9_4_0 0
x_6_9_4_1 0
x_6_9_4_2 0
x_6_9_4_3 0
x_6_9_4_4 0
x_6_9_4_5 0
x_6_10_0_0 0
x_6_10_0_1 0
x_6_10_0_2 0
x_6_10_0_3 0
x_6_10_0_4 0
x_6_10_0_5 0
x_6_10_1_0 0
x_6_10_1_1 0
x_6_10_1_2 0
x_6_10_1_3 0
x_6_10_1_4 0
x_6_10_1_5 0
x_6_10_2_0 0
x_6_10_2_1 0
x_6_10_2_2 0
x_6_10_2_3 0
x_6_10_2_4 0
x_6_10_2_5 0
x_6_10_3_0 0
x_6_10_3_1 0
x_6_10_3_2 0
x_6_10_3_3 0
x_6_10_3_4 0
x_6_10_3_5 0
x_6_10_4_0 0
x_6_10_4_1 0
x_6_10_4_2 0
x_6_10_4_3 0
x_6_10_4_4 0
x_6_10_4_5 0
x_7_8_0_0 0
x_7_8_0_1 0
x_7_8_0_2 0
x_7_8_0_3 0
x_7_8_0_4 0
x_7_8_0_5 0
x_7_8_1_0 0
x_7_8_1_1 0
x_7_8_1_2 0
x_7_8_1_3 0
x_7_8_1_4 0
x_7_8_1_5 0
x_7_8_2_0 0
x_7_8_2_1 0
x_7_8_2_2 0
x_7_8_2_3 0
x_7_8_2_4 0
x_7_8_2_5 0
x_7_8_3_0 0
x_7_8_3_1 0
x_7_8_3_2 0
x_7_8_3_3 0
x_7_8_3_4 0
x_7_8_3_5 0
x_7_8_4_0 0
x_7_8_4_1 0
x_7_8_4_2 0
x_7_8_4_3 0
x_7_8_4_4 0
x_7_8_4_5 0
x_7_9_0_0 0
x_7_9_0_1 0
x_7_9_0_2 0
x_7_9_0_3 0
x_7_9_0_4 0
x_7_9_0_5 0
x_7_9_1_0 0
x_7_9_1_1 0
x_7_9_1_2 0
x_7_9_1_3 0
x_7_9_1_4 0
x_7_9_1_5 0
x_7_9_2_0 0
x_7_9_2_1 0
x_7_9_2_2 0
x_7_9_2_3 0
x_7_9_2_4 0
x_7_9_2_5 0
x_7_9_3_0 0
x_7_9_3_1 0
x_7_9_3_2 0
x_7_9_3_3 0
x_7_9_3_4 0
x_7_9_3_5 0
x_7_9_4_0 0
x_7_9_4_1 0
x_7_9_4_2 0
x_7_9_4_3 0
x_7_9_4_4 0
x_7_9_4_5 0
x_7_10_0_0 1
x_7_10_0_1 0
x_7_10_0_2 0
x_7_10_0_3 0
x_7_10_0_4 0
x_7_10_0_5 0
x_7_10_1_0 0
x_7_10_1_1 0
x_7_10_1_2 0
x_7_10_1_3 0
x_7_10_1_4 0
x_7_10_1_5 0
x_7_10_2_0 0
x_7_10_2_1 0
x_7_10_2_2 0
x_7_10_2_3 0
x_7_10_2_4 0
x_7_10_2_5 0
x_7_10_3_0 0
x_7_10_3_1 0
x_7_10_3_2 0
x_7_10_3_3 0
x_7_10_3_4 0
x_7_10_3_5 0
x_7_10_4_0 0
x_7_10_4_1 0
x_7_10_4_2 0
x_7_10_4_3 0
x_7_10_4_4 0
x_7_10_4_5 0
x_8_9_0_0 0
x_8_9_0_1 0
x_8_9_0_2 0
x_8_9_0_3 0
x_8_9_0_4 0
x_8_9_0_5 0
x_8_9_1_0 0
x_8_9_1_1 0
x_8_9_1_2 0
x_8_9_1_3 0
x_8_9_1_4 0
x_8_9_1_5 0
x_8_9_2_0 0
x_8_9_2_1 0
x_8_9_2_2 0
x_8_9_2_3 0
x_8_9_2_4 0
x_8_9_2_5 0
x_8_9_3_0 0
x_8_9_3_1 0
x_8_9_3_2 0
x_8_9_3_3 0
x_8_9_3_4 0
x_8_9_3_5 0
x_8_9_4_0 0
x_8_9_4_1 0
x_8_9_4_2 0
x_8_9_4_3 0
x_8_9_4_4 0
x_8_9_4_5 0
x_8_10_0_0 0
x_8_10_0_1 0
x_8_10_0_2 0
x_8_10_0_3 0
x_8_10_0_4 0
x_8_10_0_5 0
x_8_10_1_0 0
x_8_10_1_1 0
x_8_10_1_2 0
x_8_10_1_3 0
x_8_10_1_4 0
x_8_10_1_5 0
x_8_10_2_0 0
x_8_10_2_1 0
x_8_10_2_2 0
x_8_10_2_3 0
x_8_10_2_4 0
x_8_10_2_5 0
x_8_10_3_0 0
x_8_10_3_1 0
x_8_10_3_2 0
x_8_10_3_3 0
x_8_10_3_4 0
x_8_10_3_5 0
x_8_10_4_0 0
x_8_10_4_1 0
x_8_10_4_2 0
x_8_10_4_3 0
x_8_10_4_4 0
x_8_10_4_5 0
x_9_10_0_0 0
x_9_10_0_1 0
x_9_10_0_2 0
x_9_10_0_3 0
x_9_10_0_4 0
x_9_10_0_5 0
x_9_10_1_0 0
x_9_10_1_1 0
x_9_10_1_2 0
x_9_10_1_3 0
x_9_10_1_4 0
x_9_10_1_5 0
x_9_10_2_0 0
x_9_10_2_1 0
x_9_10_2_2 0
x_9_10_2_3 0
x_9_10_2_4 0
x_9_10_2_5 0
x_9_10_3_0 0
x_9_10_3_1 0
x_9_10_3_2 0
x_9_10_3_3 0
x_9_10_3_4 0
x_9_10_3_5 0
x_9_10_4_0 0
x_9_10_4_1 0
x_9_10_4_2 0
x_9_10_4_3 0
x_9_10_4_4 0
x_9_10_4_5 0
